WARNING: for repeatability, setting FPU to use double precision
============================[ Problem Statistics ]=============================
|                                                                             |
|  Number of variables:          8399                                         |
|  Number of clauses:          115855                                         |
|  Parse time:                   0.03 s                                       |
|  Eliminated clauses:           0.02 Mb                                      |
|  Simplification time:          0.03 s                                       |
|                                                                             |
============================[ Search Statistics ]==============================
| Conflicts |          ORIGINAL         |          LEARNT          | Progress |
|           |    Vars  Clauses Literals |    Limit  Clauses Lit/Cl |          |
===============================================================================
|       100 |    1010     6522    19486 |     2391      100     22 | 68.937 % |
|       250 |    1010     6522    19486 |     2630      250     24 | 68.937 % |
|       475 |    1010     6522    19486 |     2893      475     28 | 68.937 % |
===============================================================================
restarts              : 6
conflicts             : 661            (10481 /sec)
decisions             : 2511           (0.00 % random) (39814 /sec)
propagations          : 34797          (551738 /sec)
conflict literals     : 17612          (4.73 % deleted)
Memory used           : 28.00 MB
CPU time              : 0.063068 s

SATISFIABLE
